(declare-datatypes (a)
  ((list :source |Prelude.[]| (nil :source |Prelude.[]|)
     (cons :source |Prelude.:| (head a) (tail (list a))))))
(declare-datatypes () ((Nat (Z) (S (p Nat)))))
(define-fun-rec
  plus
    ((x Nat) (y Nat)) Nat
    (match x
      (case Z y)
      (case (S z) (S (plus z y)))))
(define-fun-rec
  le
    ((x Nat) (y Nat)) Bool
    (match x
      (case Z true)
      (case (S z)
        (match y
          (case Z false)
          (case (S x2) (le z x2))))))
(define-fun-rec
  (par (a)
    (deleteBy :source Data.List.deleteBy
       ((x (=> a (=> a Bool))) (y a) (z (list a))) (list a)
       (match z
         (case nil (as nil (list a)))
         (case (cons y2 ys)
           (ite (@ (@ x y) y2) ys (cons y2 (deleteBy x y ys))))))))
(define-fun-rec
  (par (a)
    (deleteAll :source SortUtils.deleteAll
       ((x a) (y (list a))) (list a)
       (match y
         (case nil (as nil (list a)))
         (case (cons z ys)
           (ite (= x z) (deleteAll x ys) (cons z (deleteAll x ys))))))))
(define-fun-rec
  (par (a)
    (count :source SortUtils.count
       ((x a) (y (list a))) Nat
       (match y
         (case nil Z)
         (case (cons z ys)
           (ite (= x z) (plus (S Z) (count x ys)) (count x ys)))))))
(prove
  :source List.prop_deleteAll_count
  (par (a)
    (forall ((x a) (xs (list a)))
      (=>
        (= (deleteAll x xs)
          (deleteBy (lambda ((y a)) (lambda ((z a)) (= y z))) x xs))
        (le (count x xs) (S Z))))))
